(set-info :smt-lib-version 2.6)
(set-logic QF_NIA)
(set-info :source |AProve team, see http://aprove.informatik.rwth-aachen.de/, submitted for SMT-COMP 2014|)
(set-info :category "industrial")
(set-info :status unknown)
(declare-fun b__74 () Int)
(declare-fun a__6 () Int)
(declare-fun a__2 () Int)
(declare-fun a__4 () Int)
(declare-fun a__13 () Int)
(declare-fun b__75 () Int)
(declare-fun b__76 () Int)
(declare-fun a__18 () Int)
(declare-fun b__77 () Int)
(declare-fun a__8 () Int)
(declare-fun a__29 () Int)
(declare-fun a__22 () Int)
(declare-fun a__20 () Int)
(declare-fun b__78 () Int)
(declare-fun b__79 () Int)
(declare-fun a__40 () Int)
(declare-fun a__52 () Int)
(declare-fun a__45 () Int)
(declare-fun b__80 () Int)
(declare-fun b__81 () Int)
(declare-fun a__36 () Int)
(declare-fun a__50 () Int)
(declare-fun a__72 () Int)
(declare-fun a__54 () Int)
(declare-fun b__82 () Int)
(declare-fun a__25 () Int)
(declare-fun a__9 () Int)
(declare-fun a__14 () Int)
(declare-fun a__10 () Int)
(declare-fun a__16 () Int)
(declare-fun a__24 () Int)
(declare-fun a__27 () Int)
(declare-fun a__21 () Int)
(declare-fun a__23 () Int)
(declare-fun a__28 () Int)
(declare-fun a__30 () Int)
(declare-fun a__31 () Int)
(declare-fun a__32 () Int)
(declare-fun a__11 () Int)
(declare-fun a__33 () Int)
(declare-fun a__35 () Int)
(declare-fun a__37 () Int)
(declare-fun a__34 () Int)
(declare-fun a__38 () Int)
(declare-fun a__39 () Int)
(declare-fun a__41 () Int)
(declare-fun a__42 () Int)
(declare-fun a__44 () Int)
(declare-fun a__26 () Int)
(declare-fun a__43 () Int)
(declare-fun a__3 () Int)
(declare-fun a__46 () Int)
(declare-fun a__47 () Int)
(declare-fun a__49 () Int)
(declare-fun a__48 () Int)
(declare-fun a__51 () Int)
(declare-fun a__7 () Int)
(declare-fun a__12 () Int)
(declare-fun a__15 () Int)
(declare-fun a__17 () Int)
(declare-fun a__19 () Int)
(declare-fun a__53 () Int)
(declare-fun a__58 () Int)
(declare-fun a__59 () Int)
(declare-fun a__55 () Int)
(declare-fun a__60 () Int)
(declare-fun a__56 () Int)
(declare-fun a__61 () Int)
(declare-fun a__57 () Int)
(declare-fun a__62 () Int)
(declare-fun a__63 () Int)
(declare-fun a__64 () Int)
(declare-fun a__65 () Int)
(declare-fun a__66 () Int)
(declare-fun a__67 () Int)
(declare-fun a__68 () Int)
(declare-fun a__70 () Int)
(declare-fun a__69 () Int)
(declare-fun a__71 () Int)
(declare-fun a__73 () Int)
(declare-fun a__5 () Int)
(declare-fun a__1 () Int)
(assert (and (>= (+ 1 (* (- 0 1) b__74)) 0) (= (+ (* b__74 a__6) (* (- 0 1) a__6)) 0) (= (+ (* b__74 a__2 a__4) (* (- 0 1) (* a__2 a__4))) 0) (= (+ (* b__74 a__2 a__13) (* (- 0 1) (* a__2 a__13))) 0) (>= (+ 1 (* (- 0 1) b__75)) 0) (= (+ (* b__75 a__6) (* (- 0 1) a__6)) 0) (= (+ (* b__75 a__2) (* (- 0 1) a__2)) 0) (>= (+ 1 (* (- 0 1) b__76)) 0) (= (+ (* b__76 a__6) (* (- 0 1) a__6)) 0) (= (+ (* b__76 a__2 a__18) (* (- 0 1) (* a__2 a__18))) 0) (>= (+ 1 (* (- 0 1) b__77)) 0) (= (+ (* b__77 a__2) (* (- 0 1) a__2)) 0) (= (+ (* b__77 a__6 a__8 a__29) (* (- 0 1) (* a__6 a__8 a__29))) 0) (= (+ (* b__77 a__6 a__8 a__22) (* (- 0 1) (* a__6 a__8 a__22))) 0) (= (+ (* b__77 a__6 a__13 a__29) (* (- 0 1) (* a__6 a__13 a__29))) 0) (= (+ (* b__77 a__6 a__13 a__22) (* (- 0 1) (* a__6 a__13 a__22))) 0) (= (+ (* b__77 a__6 a__29 a__20) (* (- 0 1) (* a__6 a__29 a__20))) 0) (= (+ (* b__77 a__6 a__20 a__22) (* (- 0 1) (* a__6 a__20 a__22))) 0) (>= (+ 1 (* (- 0 1) b__78)) 0) (= (+ (* b__78 a__6 a__8) (* (- 0 1) (* a__6 a__8))) 0) (= (+ (* b__78 a__6 a__13) (* (- 0 1) (* a__6 a__13))) 0) (= (+ (* b__78 a__6 a__20) (* (- 0 1) (* a__6 a__20))) 0) (>= (+ 1 (* (- 0 1) b__79)) 0) (= (+ (* b__79 a__2 a__8) (* (- 0 1) (* a__2 a__8))) 0) (= (+ (* b__79 a__6 a__8 a__29) (* (- 0 1) (* a__6 a__8 a__29))) 0) (= (+ (* b__79 a__6 a__8 a__22) (* (- 0 1) (* a__6 a__8 a__22))) 0) (= (+ (* b__79 a__6 a__13 a__29) (* (- 0 1) (* a__6 a__13 a__29))) 0) (= (+ (* b__79 a__6 a__29 a__20) (* (- 0 1) (* a__6 a__29 a__20))) 0) (= (+ (* b__79 a__6 a__40 a__8 a__22) (* (- 0 1) (* a__6 a__40 a__8 a__22))) 0) (= (+ (* b__79 a__6 a__40 a__13 a__22) (* (- 0 1) (* a__6 a__40 a__13 a__22))) 0) (= (+ (* b__79 a__6 a__40 a__20 a__22) (* (- 0 1) (* a__6 a__40 a__20 a__22))) 0) (= (+ (* b__79 a__6 a__52 a__8 a__22) (* (- 0 1) (* a__6 a__52 a__8 a__22))) 0) (= (+ (* b__79 a__6 a__52 a__13 a__22) (* (- 0 1) (* a__6 a__52 a__13 a__22))) 0) (= (+ (* b__79 a__6 a__52 a__20 a__22) (* (- 0 1) (* a__6 a__52 a__20 a__22))) 0) (= (+ (* b__79 a__6 a__45 a__8 a__22) (* (- 0 1) (* a__6 a__45 a__8 a__22))) 0) (= (+ (* b__79 a__6 a__45 a__13 a__22) (* (- 0 1) (* a__6 a__45 a__13 a__22))) 0) (= (+ (* b__79 a__6 a__45 a__20 a__22) (* (- 0 1) (* a__6 a__45 a__20 a__22))) 0) (>= (+ 1 (* (- 0 1) b__80)) 0) (= (+ (* b__80 a__6 a__8 a__29) (* (- 0 1) (* a__6 a__8 a__29))) 0) (= (+ (* b__80 a__6 a__8 a__22) (* (- 0 1) (* a__6 a__8 a__22))) 0) (= (+ (* b__80 a__6 a__13 a__29) (* (- 0 1) (* a__6 a__13 a__29))) 0) (= (+ (* b__80 a__6 a__13 a__22) (* (- 0 1) (* a__6 a__13 a__22))) 0) (= (+ (* b__80 a__6 a__29 a__20) (* (- 0 1) (* a__6 a__29 a__20))) 0) (= (+ (* b__80 a__6 a__20 a__22) (* (- 0 1) (* a__6 a__20 a__22))) 0) (>= (+ 1 (* (- 0 1) b__81)) 0) (= (+ (* b__81 a__6 a__8 a__29) (* (- 0 1) (* a__6 a__8 a__29))) 0) (= (+ (* b__81 a__6 a__13 a__29) (* (- 0 1) (* a__6 a__13 a__29))) 0) (= (+ (* b__81 a__6 a__29 a__20) (* (- 0 1) (* a__6 a__29 a__20))) 0) (= (+ (* b__81 a__6 a__36 a__8 a__22) (* (- 0 1) (* a__6 a__36 a__8 a__22))) 0) (= (+ (* b__81 a__6 a__36 a__13 a__22) (* (- 0 1) (* a__6 a__36 a__13 a__22))) 0) (= (+ (* b__81 a__6 a__36 a__20 a__22) (* (- 0 1) (* a__6 a__36 a__20 a__22))) 0) (= (+ (* b__81 a__6 a__50 a__8 a__22) (* (- 0 1) (* a__6 a__50 a__8 a__22))) 0) (= (+ (* b__81 a__6 a__50 a__13 a__22) (* (- 0 1) (* a__6 a__50 a__13 a__22))) 0) (= (+ (* b__81 a__6 a__50 a__20 a__22) (* (- 0 1) (* a__6 a__50 a__20 a__22))) 0) (= (+ (* b__81 a__6 a__8 a__72 a__22) (* (- 0 1) (* a__6 a__8 a__72 a__22))) 0) (= (+ (* b__81 a__6 a__8 a__54 a__22) (* (- 0 1) (* a__6 a__8 a__54 a__22))) 0) (= (+ (* b__81 a__6 a__13 a__72 a__22) (* (- 0 1) (* a__6 a__13 a__72 a__22))) 0) (= (+ (* b__81 a__6 a__13 a__54 a__22) (* (- 0 1) (* a__6 a__13 a__54 a__22))) 0) (= (+ (* b__81 a__6 a__72 a__20 a__22) (* (- 0 1) (* a__6 a__72 a__20 a__22))) 0) (= (+ (* b__81 a__6 a__54 a__20 a__22) (* (- 0 1) (* a__6 a__54 a__20 a__22))) 0) (>= (+ 1 (* (- 0 1) b__82)) 0) (= (+ (* b__82 a__6 a__8 a__29) (* (- 0 1) (* a__6 a__8 a__29))) 0) (= (+ (* b__82 a__6 a__13 a__29) (* (- 0 1) (* a__6 a__13 a__29))) 0) (= (+ (* b__82 a__6 a__29 a__20) (* (- 0 1) (* a__6 a__29 a__20))) 0) (= (+ (* b__82 a__6 a__8 a__25 a__22) (* (- 0 1) (* a__6 a__8 a__25 a__22))) 0) (= (+ (* b__82 a__6 a__13 a__25 a__22) (* (- 0 1) (* a__6 a__13 a__25 a__22))) 0) (= (+ (* b__82 a__6 a__25 a__20 a__22) (* (- 0 1) (* a__6 a__25 a__20 a__22))) 0) (>= (+ (* a__4 a__2) (* (- 0 1) a__2)) 0) (>= (+ (* a__9 a__6) (* (- 0 1) (* a__14 a__2))) 0) (>= (+ (* a__10 a__6) (* (- 0 1) (* a__16 a__13 a__2))) 0) (>= (+ (* a__14 a__6) (* (- 0 1) (* a__20 a__18 a__2))) 0) (>= (+ (* a__8 a__2) (* (- 0 1) (* a__22 a__8 a__6))) 0) (>= (+ (* a__9 a__2) (* (- 0 1) (* a__9 a__6))) 0) (>= (+ (* a__10 a__2) (* (- 0 1) (* a__10 a__6))) 0) (>= (+ (* a__13 a__2) (* (- 0 1) (* a__22 a__13 a__6))) 0) (>= (+ (* a__14 a__2) (* (- 0 1) (* a__14 a__6))) 0) (>= (+ (* a__16 a__2) (* (- 0 1) (* a__16 a__6))) 0) (>= (+ (* a__18 a__2) (* (- 0 1) a__2)) 0) (>= (+ (* a__20 a__2) (* (- 0 1) (* a__22 a__20 a__6))) 0) (>= (+ (* a__18 a__16 a__6) (* (- 0 1) (* a__16 a__4 a__2))) 0) (>= (+ (* a__24 a__20 a__6) (* (- 0 1) (* a__10 a__2))) 0) (>= (+ (* a__25 a__20 a__6) (* (- 0 1) (* a__27 a__8 a__2)) (* (- 0 1) (* a__9 a__2))) 0) (>= (+ (* b__74 a__29 a__16) (* (- 0 1) (* b__74 a__16))) 0) (>= (+ (* b__74 a__22 a__16) (* (- 0 1) (* b__74 a__16))) 0) (>= (+ (* b__75 a__22 a__14) (* (- 0 1) (* b__75 a__14))) 0) (>= (+ (* b__75 a__22 a__13) (* (- 0 1) (* b__75 a__13))) 0) (>= (+ (* b__75 a__29 a__13) (* (- 0 1) (* b__75 a__13))) 0) (>= (+ (* b__75 a__29 a__14) (* (- 0 1) (* b__75 a__14))) 0) (>= (+ (* b__76 a__29 a__20) (* (- 0 1) (* b__76 a__20))) 0) (>= (+ (* b__76 a__22 a__20) (* (- 0 1) (* b__76 a__20))) 0) (>= (+ (* b__77 a__29 a__18) (* (- 0 1) (* b__77 a__18))) 0) (>= (+ (* b__77 a__22 a__18) (* (- 0 1) (* b__77 a__18))) 0) (>= (+ (* b__78 a__21) (* b__78 a__23 a__22) (* (- 0 1) (* b__78 a__28)) (* (- 0 1) (* b__78 a__23 a__29)) (* (- 0 1) (* b__78 a__21 a__24 a__29))) 0) (>= (+ (* b__78 a__24 a__22) (* (- 0 1) (* b__78 a__22 a__24 a__29))) 0) (>= (+ (* b__78 a__25 a__22) (* (- 0 1) (* b__78 a__25 a__29))) 0) (>= (+ (* b__78 a__28) (* b__78 a__30 a__29) (* (- 0 1) (* b__78 a__21)) (* (- 0 1) (* b__78 a__23 a__22)) (* (- 0 1) (* b__78 a__31 a__24 a__22)) (* (- 0 1) (* b__78 a__30 a__25 a__22))) 0) (>= (+ (* b__78 a__28) (* b__78 a__32 a__29) (* b__78 a__11 a__33 a__29) (* (- 0 1) (* b__78 a__21)) (* (- 0 1) (* b__78 a__35 a__22)) (* (- 0 1) (* b__78 a__37 a__36 a__22))) 0) (>= (+ (* b__78 a__34 a__29) (* (- 0 1) (* b__78 a__38 a__36 a__22))) 0) (>= (+ (* b__78 a__21) (* b__78 a__30 a__22) (* (- 0 1) (* b__78 a__28)) (* (- 0 1) (* b__78 a__30 a__29))) 0) (>= (+ (* b__78 a__21) (* b__78 a__39 a__22) (* (- 0 1) (* b__78 a__28)) (* (- 0 1) (* b__78 a__39 a__29)) (* (- 0 1) (* b__78 a__21 a__40 a__29))) 0) (>= (+ (* b__78 a__40 a__22) (* (- 0 1) (* b__78 a__22 a__40 a__29))) 0) (>= (+ (* b__78 a__28) (* b__78 a__41 a__29) (* b__78 a__11 a__42 a__29) (* (- 0 1) (* b__78 a__21)) (* (- 0 1) (* b__78 a__44 a__22)) (* (- 0 1) (* b__78 a__26 a__45 a__22))) 0) (>= (+ (* b__78 a__43 a__29) (* (- 0 1) (* b__78 a__27 a__45 a__22))) 0) (>= (+ (* b__78 a__21) (* b__78 a__3 a__22) (* (- 0 1) (* b__78 a__28)) (* (- 0 1) (* b__78 a__3 a__29)) (* (- 0 1) (* b__78 a__21 a__4 a__29))) 0) (>= (+ (* b__78 a__4 a__22) (* (- 0 1) (* b__78 a__22 a__4 a__29))) 0) (>= (+ (* b__78 a__28) (* b__78 a__46 a__29) (* b__78 a__11 a__47 a__29) (* (- 0 1) (* b__78 a__21)) (* (- 0 1) (* b__78 a__49 a__22)) (* (- 0 1) (* b__78 a__37 a__50 a__22))) 0) (>= (+ (* b__78 a__48 a__29) (* (- 0 1) (* b__78 a__38 a__50 a__22))) 0) (>= (+ (* b__78 a__21) (* b__78 a__51 a__22) (* (- 0 1) (* b__78 a__28)) (* (- 0 1) (* b__78 a__51 a__29)) (* (- 0 1) (* b__78 a__21 a__52 a__29))) 0) (>= (+ (* b__78 a__52 a__22) (* (- 0 1) (* b__78 a__22 a__52 a__29))) 0) (>= (+ (* b__78 a__28) (* b__78 a__7 a__29) (* b__78 a__11 a__8 a__29) (* (- 0 1) (* b__78 a__21)) (* (- 0 1) (* b__78 a__12 a__22)) (* (- 0 1) (* b__78 a__15 a__13 a__22))) 0) (>= (+ (* b__78 a__9 a__29) (* (- 0 1) (* b__78 a__14 a__22))) 0) (>= (+ (* b__78 a__10 a__29) (* (- 0 1) (* b__78 a__16 a__13 a__22))) 0) (>= (+ (* b__78 a__21) (* b__78 a__32 a__22) (* (- 0 1) (* b__78 a__28)) (* (- 0 1) (* b__78 a__32 a__29)) (* (- 0 1) (* b__78 a__21 a__33 a__29))) 0) (>= (+ (* b__78 a__33 a__22) (* (- 0 1) (* b__78 a__22 a__33 a__29))) 0) (>= (+ (* b__78 a__34 a__22) (* (- 0 1) (* b__78 a__34 a__29))) 0) (>= (+ (* b__78 a__28) (* b__78 a__12 a__29) (* b__78 a__11 a__13 a__29) (* (- 0 1) (* b__78 a__21)) (* (- 0 1) (* b__78 a__17 a__22)) (* (- 0 1) (* b__78 a__19 a__18 a__22))) 0) (>= (+ (* b__78 a__14 a__29) (* (- 0 1) (* b__78 a__20 a__18 a__22))) 0) (>= (+ (* b__78 a__21) (* b__78 a__35 a__22) (* (- 0 1) (* b__78 a__28)) (* (- 0 1) (* b__78 a__35 a__29)) (* (- 0 1) (* b__78 a__21 a__36 a__29))) 0) (>= (+ (* b__78 a__36 a__22) (* (- 0 1) (* b__78 a__22 a__36 a__29))) 0) (>= (+ (* b__78 a__28) (* b__78 a__53 a__29) (* b__78 a__11 a__54 a__29) (* (- 0 1) (* b__78 a__21)) (* (- 0 1) (* b__78 a__58 a__22)) (* (- 0 1) (* b__78 a__15 a__59 a__22))) 0) (>= (+ (* b__78 a__55 a__29) (* (- 0 1) (* b__78 a__60 a__22))) 0) (>= (+ (* b__78 a__56 a__29) (* (- 0 1) (* b__78 a__16 a__59 a__22)) (* (- 0 1) (* b__78 a__61 a__22))) 0) (>= (+ (* b__78 a__57 a__29) (* (- 0 1) (* b__78 a__62 a__22))) 0) (>= (+ (* b__78 a__21) (* b__78 a__37 a__22) (* (- 0 1) (* b__78 a__28)) (* (- 0 1) (* b__78 a__37 a__29))) 0) (>= (+ (* b__78 a__38 a__22) (* (- 0 1) (* b__78 a__38 a__29))) 0) (>= (+ (* b__78 a__28) (* b__78 a__58 a__29) (* b__78 a__11 a__59 a__29) (* (- 0 1) (* b__78 a__21)) (* (- 0 1) (* b__78 a__63 a__22)) (* (- 0 1) (* b__78 a__15 a__64 a__22))) 0) (>= (+ (* b__78 a__60 a__29) (* (- 0 1) (* b__78 a__65 a__22))) 0) (>= (+ (* b__78 a__61 a__29) (* (- 0 1) (* b__78 a__66 a__22))) 0) (>= (+ (* b__78 a__62 a__29) (* (- 0 1) (* b__78 a__16 a__64 a__22)) (* (- 0 1) (* b__78 a__67 a__22))) 0) (>= (+ (* b__78 a__21) (* b__78 a__41 a__22) (* (- 0 1) (* b__78 a__28)) (* (- 0 1) (* b__78 a__41 a__29)) (* (- 0 1) (* b__78 a__21 a__42 a__29))) 0) (>= (+ (* b__78 a__42 a__22) (* (- 0 1) (* b__78 a__22 a__42 a__29))) 0) (>= (+ (* b__78 a__43 a__22) (* (- 0 1) (* b__78 a__43 a__29))) 0) (>= (+ (* b__78 a__28) (* b__78 a__63 a__29) (* b__78 a__11 a__64 a__29) (* (- 0 1) (* b__78 a__21)) (* (- 0 1) (* b__78 a__23 a__22)) (* (- 0 1) (* b__78 a__68 a__25 a__22))) 0) (>= (+ (* b__78 a__65 a__29) (* (- 0 1) (* b__78 a__70 a__25 a__22))) 0) (>= (+ (* b__78 a__66 a__29) (* (- 0 1) (* b__78 a__69 a__25 a__22))) 0) (>= (+ (* b__78 a__67 a__29) (* (- 0 1) (* b__78 a__24 a__22))) 0) (>= (+ (* b__78 a__21) (* b__78 a__44 a__22) (* (- 0 1) (* b__78 a__28)) (* (- 0 1) (* b__78 a__44 a__29)) (* (- 0 1) (* b__78 a__21 a__45 a__29))) 0) (>= (+ (* b__78 a__45 a__22) (* (- 0 1) (* b__78 a__22 a__45 a__29))) 0) (>= (+ (* b__78 a__28) (* b__78 a__15 a__29) (* b__78 a__19 a__16 a__29) (* (- 0 1) (* b__78 a__21)) (* (- 0 1) (* b__78 a__39 a__22)) (* (- 0 1) (* b__78 a__26 a__40 a__22))) 0) (>= (+ (* b__78 a__20 a__16 a__29) (* (- 0 1) (* b__78 a__27 a__40 a__22))) 0) (>= (+ (* b__78 a__21) (* b__78 a__26 a__22) (* (- 0 1) (* b__78 a__28)) (* (- 0 1) (* b__78 a__26 a__29))) 0) (>= (+ (* b__78 a__27 a__22) (* (- 0 1) (* b__78 a__27 a__29))) 0) (>= (+ (* b__78 a__28) (* b__78 a__15 a__29) (* b__78 a__17 a__16 a__29) (* (- 0 1) (* b__78 a__21)) (* (- 0 1) (* b__78 a__3 a__22)) (* (- 0 1) (* b__78 a__15 a__4 a__22))) 0) (>= (+ (* b__78 a__18 a__16 a__29) (* (- 0 1) (* b__78 a__16 a__4 a__22))) 0) (>= (+ (* b__78 a__21) (* b__78 a__46 a__22) (* (- 0 1) (* b__78 a__28)) (* (- 0 1) (* b__78 a__46 a__29)) (* (- 0 1) (* b__78 a__21 a__47 a__29))) 0) (>= (+ (* b__78 a__47 a__22) (* (- 0 1) (* b__78 a__22 a__47 a__29))) 0) (>= (+ (* b__78 a__48 a__22) (* (- 0 1) (* b__78 a__48 a__29))) 0) (>= (+ (* b__78 a__28) (* b__78 a__37 a__29) (* (- 0 1) (* b__78 a__21)) (* (- 0 1) (* b__78 a__51 a__22)) (* (- 0 1) (* b__78 a__26 a__52 a__22))) 0) (>= (+ (* b__78 a__38 a__29) (* (- 0 1) (* b__78 a__27 a__52 a__22))) 0) (>= (+ (* b__78 a__21) (* b__78 a__49 a__22) (* (- 0 1) (* b__78 a__28)) (* (- 0 1) (* b__78 a__49 a__29)) (* (- 0 1) (* b__78 a__21 a__50 a__29))) 0) (>= (+ (* b__78 a__50 a__22) (* (- 0 1) (* b__78 a__22 a__50 a__29))) 0) (>= (+ (* b__78 a__28) (* b__78 a__37 a__29) (* b__78 a__23 a__38 a__29) (* (- 0 1) (* b__78 a__21)) (* (- 0 1) (* b__78 a__32 a__22)) (* (- 0 1) (* b__78 a__15 a__33 a__22))) 0) (>= (+ (* b__78 a__24 a__38 a__29) (* (- 0 1) (* b__78 a__16 a__33 a__22))) 0) (>= (+ (* b__78 a__25 a__38 a__29) (* (- 0 1) (* b__78 a__34 a__22))) 0) (>= (+ (* b__78 a__21) (* b__78 a__7 a__22) (* (- 0 1) (* b__78 a__28)) (* (- 0 1) (* b__78 a__7 a__29)) (* (- 0 1) (* b__78 a__21 a__8 a__29))) 0) (>= (+ (* b__78 a__8 a__22) (* (- 0 1) (* b__78 a__22 a__8 a__29))) 0) (>= (+ (* b__78 a__9 a__22) (* (- 0 1) (* b__78 a__9 a__29))) 0) (>= (+ (* b__78 a__10 a__22) (* (- 0 1) (* b__78 a__10 a__29))) 0) (>= (+ (* b__78 a__28) (* b__78 a__26 a__29) (* b__78 a__23 a__27 a__29) (* (- 0 1) (* b__78 a__21)) (* (- 0 1) (* b__78 a__41 a__22)) (* (- 0 1) (* b__78 a__15 a__42 a__22))) 0) (>= (+ (* b__78 a__24 a__27 a__29) (* (- 0 1) (* b__78 a__16 a__42 a__22))) 0) (>= (+ (* b__78 a__25 a__27 a__29) (* (- 0 1) (* b__78 a__43 a__22))) 0) (>= (+ (* b__78 a__21) (* b__78 a__12 a__22) (* (- 0 1) (* b__78 a__28)) (* (- 0 1) (* b__78 a__12 a__29)) (* (- 0 1) (* b__78 a__21 a__13 a__29))) 0) (>= (+ (* b__78 a__13 a__22) (* (- 0 1) (* b__78 a__22 a__13 a__29))) 0) (>= (+ (* b__78 a__14 a__22) (* (- 0 1) (* b__78 a__14 a__29))) 0) (>= (+ (* b__78 a__28) (* b__78 a__26 a__29) (* b__78 a__68 a__27 a__29) (* (- 0 1) (* b__78 a__21)) (* (- 0 1) (* b__78 a__46 a__22)) (* (- 0 1) (* b__78 a__15 a__47 a__22))) 0) (>= (+ (* b__78 a__69 a__27 a__29) (* (- 0 1) (* b__78 a__16 a__47 a__22))) 0) (>= (+ (* b__78 a__70 a__27 a__29) (* (- 0 1) (* b__78 a__48 a__22))) 0) (>= (+ (* b__78 a__21) (* b__78 a__15 a__22) (* (- 0 1) (* b__78 a__28)) (* (- 0 1) (* b__78 a__15 a__29))) 0) (>= (+ (* b__78 a__16 a__22) (* (- 0 1) (* b__78 a__16 a__29))) 0) (>= (+ (* b__78 a__28) (* b__78 a__19 a__29) (* b__78 a__23 a__20 a__29) (* (- 0 1) (* b__78 a__21)) (* (- 0 1) (* b__78 a__7 a__22)) (* (- 0 1) (* b__78 a__26 a__8 a__22))) 0) (>= (+ (* b__78 a__24 a__20 a__29) (* (- 0 1) (* b__78 a__10 a__22))) 0) (>= (+ (* b__78 a__25 a__20 a__29) (* (- 0 1) (* b__78 a__27 a__8 a__22)) (* (- 0 1) (* b__78 a__9 a__22))) 0) (>= (+ (* b__78 a__21) (* b__78 a__17 a__22) (* (- 0 1) (* b__78 a__28)) (* (- 0 1) (* b__78 a__17 a__29)) (* (- 0 1) (* b__78 a__21 a__18 a__29))) 0) (>= (+ (* b__78 a__18 a__22) (* (- 0 1) (* b__78 a__22 a__18 a__29))) 0) (>= (+ (* b__78 a__28) (* b__78 a__68 a__29) (* b__78 a__31 a__69 a__29) (* (- 0 1) (* b__78 a__21)) (* (- 0 1) (* b__78 a__71 a__22)) (* (- 0 1) (* b__78 a__37 a__72 a__22))) 0) (>= (+ (* b__78 a__70 a__29) (* (- 0 1) (* b__78 a__38 a__72 a__22))) 0) (>= (+ (* b__78 a__21) (* b__78 a__19 a__22) (* (- 0 1) (* b__78 a__28)) (* (- 0 1) (* b__78 a__19 a__29)) (* (- 0 1) (* b__78 a__21 a__20 a__29))) 0) (>= (+ (* b__78 a__20 a__22) (* (- 0 1) (* b__78 a__22 a__20 a__29))) 0) (>= (+ (* b__78 a__28) (* b__78 a__68 a__29) (* b__78 a__17 a__69 a__29) (* b__78 a__23 a__70 a__29) (* (- 0 1) (* b__78 a__21)) (* (- 0 1) (* b__78 a__53 a__22)) (* (- 0 1) (* b__78 a__37 a__54 a__22))) 0) (>= (+ (* b__78 a__18 a__69 a__29) (* (- 0 1) (* b__78 a__56 a__22))) 0) (>= (+ (* b__78 a__24 a__70 a__29) (* (- 0 1) (* b__78 a__57 a__22))) 0) (>= (+ (* b__78 a__25 a__70 a__29) (* (- 0 1) (* b__78 a__38 a__54 a__22)) (* (- 0 1) (* b__78 a__55 a__22))) 0) (>= (+ (* b__78 a__21) (* b__78 a__71 a__22) (* (- 0 1) (* b__78 a__28)) (* (- 0 1) (* b__78 a__71 a__29)) (* (- 0 1) (* b__78 a__21 a__72 a__29))) 0) (>= (+ (* b__78 a__72 a__22) (* (- 0 1) (* b__78 a__22 a__72 a__29))) 0) (>= (+ (* b__78 a__21) (* b__78 a__53 a__22) (* (- 0 1) (* b__78 a__28)) (* (- 0 1) (* b__78 a__53 a__29)) (* (- 0 1) (* b__78 a__21 a__54 a__29))) 0) (>= (+ (* b__78 a__54 a__22) (* (- 0 1) (* b__78 a__22 a__54 a__29))) 0) (>= (+ (* b__78 a__55 a__22) (* (- 0 1) (* b__78 a__55 a__29))) 0) (>= (+ (* b__78 a__56 a__22) (* (- 0 1) (* b__78 a__56 a__29))) 0) (>= (+ (* b__78 a__57 a__22) (* (- 0 1) (* b__78 a__57 a__29))) 0) (>= (+ (* b__78 a__21) (* b__78 a__58 a__22) (* (- 0 1) (* b__78 a__28)) (* (- 0 1) (* b__78 a__58 a__29)) (* (- 0 1) (* b__78 a__21 a__59 a__29))) 0) (>= (+ (* b__78 a__59 a__22) (* (- 0 1) (* b__78 a__22 a__59 a__29))) 0) (>= (+ (* b__78 a__60 a__22) (* (- 0 1) (* b__78 a__60 a__29))) 0) (>= (+ (* b__78 a__61 a__22) (* (- 0 1) (* b__78 a__61 a__29))) 0) (>= (+ (* b__78 a__62 a__22) (* (- 0 1) (* b__78 a__62 a__29))) 0) (>= (+ (* b__78 a__21) (* b__78 a__63 a__22) (* (- 0 1) (* b__78 a__28)) (* (- 0 1) (* b__78 a__63 a__29)) (* (- 0 1) (* b__78 a__21 a__64 a__29))) 0) (>= (+ (* b__78 a__64 a__22) (* (- 0 1) (* b__78 a__22 a__64 a__29))) 0) (>= (+ (* b__78 a__65 a__22) (* (- 0 1) (* b__78 a__65 a__29))) 0) (>= (+ (* b__78 a__66 a__22) (* (- 0 1) (* b__78 a__66 a__29))) 0) (>= (+ (* b__78 a__67 a__22) (* (- 0 1) (* b__78 a__67 a__29))) 0) (>= (+ (* b__78 a__21) (* b__78 a__68 a__22) (* (- 0 1) (* b__78 a__28)) (* (- 0 1) (* b__78 a__68 a__29)) (* (- 0 1) (* b__78 a__21 a__69 a__29)) (* (- 0 1) (* b__78 a__21 a__70 a__29))) 0) (>= (+ (* b__78 a__69 a__22) (* (- 0 1) (* b__78 a__22 a__69 a__29))) 0) (>= (+ (* b__78 a__70 a__22) (* (- 0 1) (* b__78 a__22 a__70 a__29))) 0) (>= (+ (* b__78 a__21) (* b__78 a__31 a__22) (* (- 0 1) (* b__78 a__28)) (* (- 0 1) (* b__78 a__31 a__29))) 0) (>= (+ (* b__78 a__21) (* b__78 a__11 a__22) (* (- 0 1) (* b__78 a__28)) (* (- 0 1) (* b__78 a__11 a__29))) 0) (>= (+ (* b__78 a__21) (* b__78 a__73 a__22) (* (- 0 1) (* b__78 a__28)) (* (- 0 1) (* b__78 a__73 a__29))) 0) (>= (+ (* b__75 a__22 a__9) (* (- 0 1) (* b__75 a__9))) 0) (>= (+ (* b__75 a__22 a__8) (* (- 0 1) (* b__75 a__8))) 0) (>= (+ (* b__75 a__22 a__10) (* (- 0 1) (* b__75 a__10))) 0) (>= (+ (* b__75 a__29 a__8) (* (- 0 1) (* b__75 a__8))) 0) (>= (+ (* b__75 a__29 a__9) (* (- 0 1) (* b__75 a__9))) 0) (>= (+ (* b__75 a__29 a__10) (* (- 0 1) (* b__75 a__10))) 0) (>= (+ (* b__77 a__29 a__4) (* (- 0 1) (* b__77 a__4))) 0) (>= (+ (* b__77 a__22 a__4) (* (- 0 1) (* b__77 a__4))) 0) (>= (+ (* b__79 a__29 a__27) (* (- 0 1) (* b__79 a__27))) 0) (>= (+ (* b__79 a__22 a__27) (* (- 0 1) (* b__79 a__27))) 0) (>= (+ (* b__80 a__22 a__25) (* (- 0 1) (* b__80 a__25))) 0) (>= (+ (* b__80 a__22 a__24) (* (- 0 1) (* b__80 a__24))) 0) (>= (+ (* b__80 a__29 a__24) (* (- 0 1) (* b__80 a__24))) 0) (>= (+ (* b__80 a__29 a__25) (* (- 0 1) (* b__80 a__25))) 0) (>= (+ (* b__78 a__28) (* b__78 a__39 a__29) (* b__78 a__11 a__40 a__29) (* (- 0 1) (* b__78 a__21)) (* (- 0 1) (* b__78 a__11 a__22))) 0) (>= (+ (* b__78 a__28) (* b__78 a__3 a__29) (* b__78 a__11 a__4 a__29) (* (- 0 1) (* b__78 a__21)) (* (- 0 1) (* b__78 a__11 a__22))) 0) (>= (+ (* b__78 a__28) (* b__78 a__51 a__29) (* b__78 a__11 a__52 a__29) (* (- 0 1) (* b__78 a__21)) (* (- 0 1) (* b__78 a__11 a__22))) 0) (>= (+ (* b__78 a__28) (* b__78 a__35 a__29) (* b__78 a__11 a__36 a__29) (* (- 0 1) (* b__78 a__21)) (* (- 0 1) (* b__78 a__11 a__22))) 0) (>= (+ (* b__78 a__28) (* b__78 a__44 a__29) (* b__78 a__11 a__45 a__29) (* (- 0 1) (* b__78 a__21)) (* (- 0 1) (* b__78 a__11 a__22))) 0) (>= (+ (* b__78 a__28) (* b__78 a__49 a__29) (* b__78 a__11 a__50 a__29) (* (- 0 1) (* b__78 a__21)) (* (- 0 1) (* b__78 a__11 a__22))) 0) (>= (+ (* b__78 a__28) (* b__78 a__71 a__29) (* b__78 a__11 a__72 a__29) (* (- 0 1) (* b__78 a__21)) (* (- 0 1) (* b__78 a__73 a__22))) 0) (>= (+ (* b__78 a__28) (* b__78 a__15 a__29) (* b__78 a__31 a__16 a__29) (* (- 0 1) (* b__78 a__21)) (* (- 0 1) (* b__78 a__11 a__22))) 0) (>= (+ (* b__78 a__28) (* b__78 a__37 a__29) (* b__78 a__30 a__38 a__29) (* (- 0 1) (* b__78 a__21)) (* (- 0 1) (* b__78 a__11 a__22))) 0) (>= (+ (* b__78 a__28) (* b__78 a__26 a__29) (* b__78 a__73 a__27 a__29) (* (- 0 1) (* b__78 a__21)) (* (- 0 1) (* b__78 a__11 a__22))) 0) (>= (+ (* b__78 a__28) (* b__78 a__19 a__29) (* b__78 a__73 a__20 a__29) (* (- 0 1) (* b__78 a__21)) (* (- 0 1) (* b__78 a__31 a__22))) 0) (>= (+ (* b__81 a__29 a__38) (* (- 0 1) (* b__81 a__38))) 0) (>= (+ (* b__81 a__22 a__38) (* (- 0 1) (* b__81 a__38))) 0) (>= (+ (* b__80 a__29 a__36) (* (- 0 1) (* b__80 a__36))) 0) (>= (+ (* b__80 a__22 a__36) (* (- 0 1) (* b__80 a__36))) 0) (>= (+ (* b__80 a__29 a__40) (* (- 0 1) (* b__80 a__40))) 0) (>= (+ (* b__80 a__22 a__40) (* (- 0 1) (* b__80 a__40))) 0) (>= (+ (* b__80 a__29 a__45) (* (- 0 1) (* b__80 a__45))) 0) (>= (+ (* b__80 a__22 a__45) (* (- 0 1) (* b__80 a__45))) 0) (>= (+ (* b__80 a__29 a__50) (* (- 0 1) (* b__80 a__50))) 0) (>= (+ (* b__80 a__22 a__50) (* (- 0 1) (* b__80 a__50))) 0) (>= (+ (* b__80 a__29 a__52) (* (- 0 1) (* b__80 a__52))) 0) (>= (+ (* b__80 a__22 a__52) (* (- 0 1) (* b__80 a__52))) 0) (>= (+ (* b__80 a__22 a__34) (* (- 0 1) (* b__80 a__34))) 0) (>= (+ (* b__80 a__22 a__33) (* (- 0 1) (* b__80 a__33))) 0) (>= (+ (* b__80 a__29 a__33) (* (- 0 1) (* b__80 a__33))) 0) (>= (+ (* b__80 a__29 a__34) (* (- 0 1) (* b__80 a__34))) 0) (>= (+ (* b__80 a__22 a__60) (* (- 0 1) (* b__80 a__60))) 0) (>= (+ (* b__80 a__22 a__59) (* (- 0 1) (* b__80 a__59))) 0) (>= (+ (* b__80 a__22 a__61) (* (- 0 1) (* b__80 a__61))) 0) (>= (+ (* b__80 a__22 a__62) (* (- 0 1) (* b__80 a__62))) 0) (>= (+ (* b__80 a__29 a__59) (* (- 0 1) (* b__80 a__59))) 0) (>= (+ (* b__80 a__29 a__60) (* (- 0 1) (* b__80 a__60))) 0) (>= (+ (* b__80 a__29 a__61) (* (- 0 1) (* b__80 a__61))) 0) (>= (+ (* b__80 a__29 a__62) (* (- 0 1) (* b__80 a__62))) 0) (>= (+ (* b__80 a__22 a__65) (* (- 0 1) (* b__80 a__65))) 0) (>= (+ (* b__80 a__22 a__64) (* (- 0 1) (* b__80 a__64))) 0) (>= (+ (* b__80 a__22 a__66) (* (- 0 1) (* b__80 a__66))) 0) (>= (+ (* b__80 a__22 a__67) (* (- 0 1) (* b__80 a__67))) 0) (>= (+ (* b__80 a__29 a__64) (* (- 0 1) (* b__80 a__64))) 0) (>= (+ (* b__80 a__29 a__65) (* (- 0 1) (* b__80 a__65))) 0) (>= (+ (* b__80 a__29 a__66) (* (- 0 1) (* b__80 a__66))) 0) (>= (+ (* b__80 a__29 a__67) (* (- 0 1) (* b__80 a__67))) 0) (>= (+ (* b__80 a__22 a__43) (* (- 0 1) (* b__80 a__43))) 0) (>= (+ (* b__80 a__22 a__42) (* (- 0 1) (* b__80 a__42))) 0) (>= (+ (* b__80 a__29 a__42) (* (- 0 1) (* b__80 a__42))) 0) (>= (+ (* b__80 a__29 a__43) (* (- 0 1) (* b__80 a__43))) 0) (>= (+ (* b__82 a__22 a__70) (* (- 0 1) (* b__82 a__70))) 0) (>= (+ (* b__82 a__22 a__69) (* (- 0 1) (* b__82 a__69))) 0) (>= (+ (* b__82 a__29 a__69) (* (- 0 1) (* b__82 a__69))) 0) (>= (+ (* b__82 a__29 a__70) (* (- 0 1) (* b__82 a__70))) 0) (>= (+ (* b__80 a__22 a__48) (* (- 0 1) (* b__80 a__48))) 0) (>= (+ (* b__80 a__22 a__47) (* (- 0 1) (* b__80 a__47))) 0) (>= (+ (* b__80 a__29 a__47) (* (- 0 1) (* b__80 a__47))) 0) (>= (+ (* b__80 a__29 a__48) (* (- 0 1) (* b__80 a__48))) 0) (>= (+ (* b__80 a__29 a__72) (* (- 0 1) (* b__80 a__72))) 0) (>= (+ (* b__80 a__22 a__72) (* (- 0 1) (* b__80 a__72))) 0) (>= (+ (* b__80 a__22 a__55) (* (- 0 1) (* b__80 a__55))) 0) (>= (+ (* b__80 a__22 a__54) (* (- 0 1) (* b__80 a__54))) 0) (>= (+ (* b__80 a__22 a__56) (* (- 0 1) (* b__80 a__56))) 0) (>= (+ (* b__80 a__22 a__57) (* (- 0 1) (* b__80 a__57))) 0) (>= (+ (* b__80 a__29 a__54) (* (- 0 1) (* b__80 a__54))) 0) (>= (+ (* b__80 a__29 a__55) (* (- 0 1) (* b__80 a__55))) 0) (>= (+ (* b__80 a__29 a__56) (* (- 0 1) (* b__80 a__56))) 0) (>= (+ (* b__80 a__29 a__57) (* (- 0 1) (* b__80 a__57))) 0) (>= (* a__3 a__2) 0) (>= (+ a__5 (* a__7 a__6) (* a__11 a__8 a__6) (* (- 0 1) a__1) (* (- 0 1) (* a__12 a__2)) (* (- 0 1) (* a__15 a__13 a__2))) 0) (>= (+ a__5 (* a__12 a__6) (* a__11 a__13 a__6) (* (- 0 1) a__1) (* (- 0 1) (* a__17 a__2)) (* (- 0 1) (* a__19 a__18 a__2))) 0) (>= (+ a__1 (* a__7 a__2) (* (- 0 1) a__5) (* (- 0 1) (* a__7 a__6)) (* (- 0 1) (* a__21 a__8 a__6))) 0) (>= (+ a__1 (* a__12 a__2) (* (- 0 1) a__5) (* (- 0 1) (* a__12 a__6)) (* (- 0 1) (* a__21 a__13 a__6))) 0) (>= (+ a__1 (* a__15 a__2) (* (- 0 1) a__5) (* (- 0 1) (* a__15 a__6))) 0) (>= (* a__17 a__2) 0) (>= (+ a__1 (* a__19 a__2) (* (- 0 1) a__5) (* (- 0 1) (* a__19 a__6)) (* (- 0 1) (* a__21 a__20 a__6))) 0) (>= (+ a__5 (* a__15 a__6) (* a__17 a__16 a__6) (* (- 0 1) a__1) (* (- 0 1) (* a__3 a__2)) (* (- 0 1) (* a__15 a__4 a__2))) 0) (>= (+ a__5 (* a__19 a__6) (* a__23 a__20 a__6) (* (- 0 1) a__1) (* (- 0 1) (* a__7 a__2)) (* (- 0 1) (* a__26 a__8 a__2))) 0) (not (and (= (* a__3 a__2) 0) (= (+ a__5 (* a__7 a__6) (* a__11 a__8 a__6) (* (- 0 1) a__1) (* (- 0 1) (* a__12 a__2)) (* (- 0 1) (* a__15 a__13 a__2))) 0) (= (+ a__5 (* a__12 a__6) (* a__11 a__13 a__6) (* (- 0 1) a__1) (* (- 0 1) (* a__17 a__2)) (* (- 0 1) (* a__19 a__18 a__2))) 0) (= (+ a__1 (* a__7 a__2) (* (- 0 1) a__5) (* (- 0 1) (* a__7 a__6)) (* (- 0 1) (* a__21 a__8 a__6))) 0) (= (+ a__1 (* a__12 a__2) (* (- 0 1) a__5) (* (- 0 1) (* a__12 a__6)) (* (- 0 1) (* a__21 a__13 a__6))) 0) (= (+ a__1 (* a__15 a__2) (* (- 0 1) a__5) (* (- 0 1) (* a__15 a__6))) 0) (= (* a__17 a__2) 0) (= (+ a__1 (* a__19 a__2) (* (- 0 1) a__5) (* (- 0 1) (* a__19 a__6)) (* (- 0 1) (* a__21 a__20 a__6))) 0) (= (+ a__5 (* a__15 a__6) (* a__17 a__16 a__6) (* (- 0 1) a__1) (* (- 0 1) (* a__3 a__2)) (* (- 0 1) (* a__15 a__4 a__2))) 0) (= (+ a__5 (* a__19 a__6) (* a__23 a__20 a__6) (* (- 0 1) a__1) (* (- 0 1) (* a__7 a__2)) (* (- 0 1) (* a__26 a__8 a__2))) 0))) (>= b__74 0) (>= 1 b__74) (>= a__6 0) (>= a__2 0) (>= a__4 0) (>= a__13 0) (>= b__75 0) (>= 1 b__75) (>= b__76 0) (>= 1 b__76) (>= a__18 0) (>= b__77 0) (>= 1 b__77) (>= a__8 0) (>= a__29 0) (>= a__22 0) (>= a__20 0) (>= b__78 0) (>= 1 b__78) (>= b__79 0) (>= 1 b__79) (>= a__40 0) (>= a__52 0) (>= a__45 0) (>= b__80 0) (>= 1 b__80) (>= b__81 0) (>= 1 b__81) (>= a__36 0) (>= a__50 0) (>= a__72 0) (>= a__54 0) (>= b__82 0) (>= 1 b__82) (>= a__25 0) (>= a__9 0) (>= a__14 0) (>= a__10 0) (>= a__16 0) (>= a__24 0) (>= a__27 0) (>= a__21 0) (>= a__23 0) (>= a__28 0) (>= a__30 0) (>= a__31 0) (>= a__32 0) (>= a__11 0) (>= a__33 0) (>= a__35 0) (>= a__37 0) (>= a__34 0) (>= a__38 0) (>= a__39 0) (>= a__41 0) (>= a__42 0) (>= a__44 0) (>= a__26 0) (>= a__43 0) (>= a__3 0) (>= a__46 0) (>= a__47 0) (>= a__49 0) (>= a__48 0) (>= a__51 0) (>= a__7 0) (>= a__12 0) (>= a__15 0) (>= a__17 0) (>= a__19 0) (>= a__53 0) (>= a__58 0) (>= a__59 0) (>= a__55 0) (>= a__60 0) (>= a__56 0) (>= a__61 0) (>= a__57 0) (>= a__62 0) (>= a__63 0) (>= a__64 0) (>= a__65 0) (>= a__66 0) (>= a__67 0) (>= a__68 0) (>= a__70 0) (>= a__69 0) (>= a__71 0) (>= a__73 0) (>= a__5 0) (>= a__1 0)))
(check-sat)
;;(get-assignment)
;;(get-model)
(exit)
